db/data/166001249910811873322799284903010029608.z3.out
sat
-------------------
5.236172675
